30
1 0 5
2 0 6
2 1 8
3 0 11
3 1 5
3 2 9
4 0 3
4 1 5
4 2 11
4 3 2
5 0 1
5 1 7
5 2 8
5 3 2
5 4 7
6 0 3
6 1 5
6 2 2
6 3 11
6 4 2
6 5 4
7 0 7
7 1 4
7 2 8
7 3 3
7 4 9
7 5 11
7 6 9
8 0 9
8 1 4
8 2 11
8 3 8
8 4 10
8 5 1
8 6 1
8 7 2
9 0 8
9 1 9
9 2 1
9 3 4
9 4 8
9 5 7
9 6 3
9 7 3
9 8 3
10 0 3
10 1 4
10 2 9
10 3 1
10 4 9
10 5 3
10 6 9
10 7 8
10 8 8
10 9 7
11 0 2
11 1 9
11 2 8
11 3 7
11 4 8
11 5 1
11 6 11
11 7 2
11 8 4
11 9 11
11 10 4
12 0 6
12 1 5
12 2 2
12 3 7
12 4 10
12 5 8
12 6 1
12 7 10
12 8 9
12 9 5
12 10 6
12 11 11
13 0 1
13 1 6
13 2 7
13 3 1
13 4 11
13 5 6
13 6 1
13 7 3
13 8 10
13 9 2
13 10 5
13 11 6
13 12 7
14 0 7
14 1 9
14 2 5
14 3 4
14 4 1
14 5 11
14 6 6
14 7 11
14 8 11
14 9 6
14 10 6
14 11 9
14 12 9
14 13 8
15 0 11
15 1 11
15 2 3
15 3 7
15 4 5
15 5 10
15 6 4
15 7 11
15 8 10
15 9 11
15 10 7
15 11 10
15 12 9
15 13 8
15 14 8
16 0 1
16 1 5
16 2 3
16 3 9
16 4 4
16 5 4
16 6 2
16 7 9
16 8 10
16 9 4
16 10 8
16 11 9
16 12 10
16 13 9
16 14 10
16 15 11
17 0 3
17 1 3
17 2 1
17 3 3
17 4 3
17 5 8
17 6 3
17 7 2
17 8 9
17 9 2
17 10 3
17 11 10
17 12 9
17 13 9
17 14 8
17 15 8
17 16 4
18 0 2
18 1 7
18 2 8
18 3 9
18 4 7
18 5 6
18 6 11
18 7 6
18 8 10
18 9 3
18 10 6
18 11 4
18 12 9
18 13 11
18 14 8
18 15 9
18 16 8
18 17 5
19 0 1
19 1 7
19 2 2
19 3 4
19 4 10
19 5 4
19 6 10
19 7 11
19 8 9
19 9 5
19 10 3
19 11 1
19 12 10
19 13 7
19 14 11
19 15 1
19 16 4
19 17 6
19 18 9
20 0 11
20 1 10
20 2 2
20 3 7
20 4 4
20 5 8
20 6 2
20 7 8
20 8 4
20 9 6
20 10 5
20 11 6
20 12 2
20 13 5
20 14 6
20 15 10
20 16 8
20 17 1
20 18 9
20 19 1
21 0 8
21 1 8
21 2 5
21 3 11
21 4 7
21 5 6
21 6 9
21 7 10
21 8 3
21 9 5
21 10 6
21 11 3
21 12 11
21 13 2
21 14 10
21 15 7
21 16 8
21 17 4
21 18 3
21 19 7
21 20 11
22 0 7
22 1 5
22 2 4
22 3 5
22 4 7
22 5 1
22 6 2
22 7 11
22 8 2
22 9 4
22 10 6
22 11 8
22 12 10
22 13 2
22 14 2
22 15 7
22 16 5
22 17 2
22 18 4
22 19 3
22 20 4
22 21 1
23 0 9
23 1 10
23 2 11
23 3 1
23 4 9
23 5 2
23 6 9
23 7 7
23 8 2
23 9 4
23 10 2
23 11 6
23 12 5
23 13 9
23 14 4
23 15 7
23 16 11
23 17 2
23 18 11
23 19 11
23 20 8
23 21 4
23 22 2
24 0 11
24 1 5
24 2 1
24 3 1
24 4 5
24 5 11
24 6 1
24 7 2
24 8 9
24 9 10
24 10 5
24 11 9
24 12 5
24 13 3
24 14 2
24 15 2
24 16 7
24 17 10
24 18 4
24 19 10
24 20 11
24 21 10
24 22 7
24 23 5
25 0 10
25 1 1
25 2 3
25 3 4
25 4 9
25 5 9
25 6 9
25 7 11
25 8 7
25 9 8
25 10 8
25 11 3
25 12 8
25 13 9
25 14 1
25 15 3
25 16 3
25 17 4
25 18 2
25 19 5
25 20 1
25 21 5
25 22 5
25 23 4
25 24 8
26 0 7
26 1 10
26 2 3
26 3 2
26 4 1
26 5 8
26 6 10
26 7 7
26 8 8
26 9 4
26 10 1
26 11 1
26 12 8
26 13 10
26 14 5
26 15 7
26 16 3
26 17 2
26 18 1
26 19 2
26 20 10
26 21 4
26 22 3
26 23 3
26 24 7
26 25 10
27 0 7
27 1 1
27 2 5
27 3 9
27 4 10
27 5 4
27 6 8
27 7 3
27 8 11
27 9 6
27 10 7
27 11 4
27 12 9
27 13 4
27 14 1
27 15 3
27 16 7
27 17 5
27 18 6
27 19 3
27 20 7
27 21 1
27 22 5
27 23 6
27 24 7
27 25 2
27 26 8
28 0 10
28 1 3
28 2 5
28 3 9
28 4 10
28 5 4
28 6 7
28 7 10
28 8 1
28 9 1
28 10 10
28 11 10
28 12 10
28 13 5
28 14 7
28 15 8
28 16 10
28 17 2
28 18 10
28 19 2
28 20 10
28 21 4
28 22 4
28 23 10
28 24 10
28 25 5
28 26 1
28 27 9
29 0 7
29 1 6
29 2 11
29 3 2
29 4 6
29 5 4
29 6 4
29 7 10
29 8 7
29 9 5
29 10 2
29 11 3
29 12 5
29 13 6
29 14 9
29 15 2
29 16 1
29 17 2
29 18 1
29 19 5
29 20 4
29 21 10
29 22 7
29 23 11
29 24 7
29 25 4
29 26 2
29 27 8
29 28 5
